outputs/case_474.model.txt
foreign_exchange_deposited = 1
forex_amount_ntd = 1000000
query_received = True
declaration_truthful = True
declaration_submitted = True
query_response_truthful = True
declaration_falsehood_suspected = False
foreign_exchange_sold = 1000000
declaration_compliance = True
query_response_ok = True
declaration_required = True
declaration_made = True
sale_or_deposit_compliance = True
penalty = False